(set-info :smt-lib-version 2.6)
(set-logic UFLIA)
(set-info :source |Benchmarks from the paper: "Extending Sledgehammer with SMT Solvers" by Jasmin Blanchette, Sascha Bohme, and Lawrence C. Paulson, CADE 2011.  Translated to SMT2 by Andrew Reynolds and Morgan Deters.|)
(set-info :category "industrial")
(set-info :status unsat)
(declare-sort S1 0)
(declare-sort S2 0)
(declare-sort S3 0)
(declare-sort S4 0)
(declare-sort S5 0)
(declare-sort S6 0)
(declare-sort S7 0)
(declare-sort S8 0)
(declare-sort S9 0)
(declare-sort S10 0)
(declare-sort S11 0)
(declare-sort S12 0)
(declare-sort S13 0)
(declare-sort S14 0)
(declare-sort S15 0)
(declare-sort S16 0)
(declare-sort S17 0)
(declare-sort S18 0)
(declare-sort S19 0)
(declare-sort S20 0)
(declare-sort S21 0)
(declare-sort S22 0)
(declare-sort S23 0)
(declare-sort S24 0)
(declare-sort S25 0)
(declare-sort S26 0)
(declare-sort S27 0)
(declare-sort S28 0)
(declare-sort S29 0)
(declare-sort S30 0)
(declare-sort S31 0)
(declare-sort S32 0)
(declare-sort S33 0)
(declare-sort S34 0)
(declare-sort S35 0)
(declare-sort S36 0)
(declare-sort S37 0)
(declare-sort S38 0)
(declare-sort S39 0)
(declare-sort S40 0)
(declare-sort S41 0)
(declare-sort S42 0)
(declare-sort S43 0)
(declare-sort S44 0)
(declare-sort S45 0)
(declare-sort S46 0)
(declare-sort S47 0)
(declare-sort S48 0)
(declare-sort S49 0)
(declare-sort S50 0)
(declare-sort S51 0)
(declare-sort S52 0)
(declare-sort S53 0)
(declare-sort S54 0)
(declare-sort S55 0)
(declare-fun f1 () S1)
(declare-fun f2 () S1)
(declare-fun f3 (S3 S2) S2)
(declare-fun f4 (S4 S5) S3)
(declare-fun f5 () S4)
(declare-fun f6 () S5)
(declare-fun f7 () S2)
(declare-fun f8 () S5)
(declare-fun f9 (S5 S5) S1)
(declare-fun f10 (S6 S7) S5)
(declare-fun f11 (S8 S5) S6)
(declare-fun f12 () S8)
(declare-fun f13 (S9 S5) S7)
(declare-fun f14 () S9)
(declare-fun f15 () S5)
(declare-fun f16 (S10 Int) S7)
(declare-fun f17 () S10)
(declare-fun f18 (Int Int) S1)
(declare-fun f19 (S2 S2) S1)
(declare-fun f20 (S11 S11) S1)
(declare-fun f21 () S11)
(declare-fun f22 (S12 S12) S1)
(declare-fun f23 () S12)
(declare-fun f24 (S13 S13) S1)
(declare-fun f25 () S13)
(declare-fun f26 (S14 S14) S1)
(declare-fun f27 () S14)
(declare-fun f28 (S15 S7) S2)
(declare-fun f29 (S16 S2) S15)
(declare-fun f30 () S16)
(declare-fun f31 (S17 S5) S5)
(declare-fun f32 (S18 S13) S17)
(declare-fun f33 () S18)
(declare-fun f34 (S19 S7) S13)
(declare-fun f35 (S20 S13) S19)
(declare-fun f36 () S20)
(declare-fun f37 (S21 S14) S14)
(declare-fun f38 (S22 S11) S21)
(declare-fun f39 () S22)
(declare-fun f40 (S23 S7) S11)
(declare-fun f41 (S24 S11) S23)
(declare-fun f42 () S24)
(declare-fun f43 (S25 S7) S14)
(declare-fun f44 (S26 S14) S25)
(declare-fun f45 () S26)
(declare-fun f46 (S28 S12) S12)
(declare-fun f47 (S29 S27) S28)
(declare-fun f48 () S29)
(declare-fun f49 (S30 S7) S27)
(declare-fun f50 (S31 S27) S30)
(declare-fun f51 () S31)
(declare-fun f52 (S32 S7) S12)
(declare-fun f53 (S33 S12) S32)
(declare-fun f54 () S33)
(declare-fun f55 (S34 S13) S13)
(declare-fun f56 (S35 S12) S34)
(declare-fun f57 () S35)
(declare-fun f58 (S36 Int) Int)
(declare-fun f59 (S37 S14) S36)
(declare-fun f60 () S37)
(declare-fun f61 (S38 S7) Int)
(declare-fun f62 (S39 Int) S38)
(declare-fun f63 () S39)
(declare-fun f64 () S38)
(declare-fun f65 (S40 S11) S7)
(declare-fun f66 () S40)
(declare-fun f67 (S41 S12) S7)
(declare-fun f68 () S41)
(declare-fun f69 (S42 S13) S7)
(declare-fun f70 () S42)
(declare-fun f71 (S43 S14) S7)
(declare-fun f72 () S43)
(declare-fun f73 (S44 S11) S11)
(declare-fun f74 (S45 S46) S44)
(declare-fun f75 () S45)
(declare-fun f76 () S46)
(declare-fun f77 () S27)
(declare-fun f78 () S21)
(declare-fun f79 () S36)
(declare-fun f80 (S47 S2) S9)
(declare-fun f81 () S47)
(declare-fun f82 (S48 Int) S43)
(declare-fun f83 () S48)
(declare-fun f84 (S49 S5) S42)
(declare-fun f85 () S49)
(declare-fun f86 (S50 S46) S7)
(declare-fun f87 (S51 S11) S50)
(declare-fun f88 () S51)
(declare-fun f89 (S52 S27) S7)
(declare-fun f90 (S53 S12) S52)
(declare-fun f91 () S53)
(declare-fun f92 (S54 S13) S41)
(declare-fun f93 () S54)
(declare-fun f94 (S55 S14) S40)
(declare-fun f95 () S55)
(declare-fun f96 () S9)
(declare-fun f97 () S40)
(declare-fun f98 () S41)
(declare-fun f99 () S42)
(declare-fun f100 () S43)
(assert (not (= f1 f2)))
(assert (not (= (forall ((?v0 S2)) (=> (= (f3 (f4 f5 f6) ?v0) f7) (= (f3 (f4 f5 f8) ?v0) f7))) (or (= (f9 f6 (f10 (f11 f12 f8) (f13 f14 f6))) f1) (and (= f6 f15) (= f8 f15))))))
(assert (let ((?v_0 (f13 f14 f6))) (=> (= ?v_0 (f16 f17 0)) (= (forall ((?v0 S2)) (=> (= (f3 (f4 f5 f6) ?v0) f7) (= (f3 (f4 f5 f8) ?v0) f7))) (or (= (f9 f6 (f10 (f11 f12 f8) ?v_0)) f1) (and (= f6 f15) (= f8 f15)))))))
(assert (let ((?v_0 (f13 f14 f6))) (=> (not (= ?v_0 (f16 f17 0))) (= (forall ((?v0 S2)) (=> (= (f3 (f4 f5 f6) ?v0) f7) (= (f3 (f4 f5 f8) ?v0) f7))) (or (= (f9 f6 (f10 (f11 f12 f8) ?v_0)) f1) (and (= f6 f15) (= f8 f15)))))))
(assert (not (= f6 f15)))
(assert (let ((?v_0 (f13 f14 f6))) (=> (not (= ?v_0 (f16 f17 0))) (= (forall ((?v0 S2)) (=> (= (f3 (f4 f5 f6) ?v0) f7) (= (f3 (f4 f5 f8) ?v0) f7))) (or (= (f9 f6 (f10 (f11 f12 f8) ?v_0)) f1) (and (= f6 f15) (= f8 f15)))))))
(assert (let ((?v_0 (f13 f14 f6))) (=> (= ?v_0 (f16 f17 0)) (= (forall ((?v0 S2)) (=> (= (f3 (f4 f5 f6) ?v0) f7) (= (f3 (f4 f5 f8) ?v0) f7))) (or (= (f9 f6 (f10 (f11 f12 f8) ?v_0)) f1) (and (= f6 f15) (= f8 f15)))))))
(assert (let ((?v_0 (= f6 f15))) (=> ?v_0 (= (forall ((?v0 S2)) (=> (= (f3 (f4 f5 f6) ?v0) f7) (= (f3 (f4 f5 f8) ?v0) f7))) (or (= (f9 f6 (f10 (f11 f12 f8) (f13 f14 f6))) f1) (and ?v_0 (= f8 f15)))))))
(assert (forall ((?v0 S5) (?v1 S5) (?v2 S7)) (=> (forall ((?v3 S2)) (=> (= (f3 (f4 f5 ?v0) ?v3) f7) (= (f3 (f4 f5 ?v1) ?v3) f7))) (=> (= (f13 f14 ?v0) ?v2) (=> (not (= ?v2 (f16 f17 0))) (= (f9 ?v0 (f10 (f11 f12 ?v1) ?v2)) f1))))))
(assert (forall ((?v0 S5)) (= (f9 ?v0 f15) f1)))
(assert (forall ((?v0 Int)) (= (f18 ?v0 0) f1)))
(assert (forall ((?v0 S2)) (= (f19 ?v0 f7) f1)))
(assert (forall ((?v0 S11)) (= (f20 ?v0 f21) f1)))
(assert (forall ((?v0 S12)) (= (f22 ?v0 f23) f1)))
(assert (forall ((?v0 S13)) (= (f24 ?v0 f25) f1)))
(assert (forall ((?v0 S14)) (= (f26 ?v0 f27) f1)))
(assert (forall ((?v0 S5) (?v1 S7) (?v2 S2)) (= (f3 (f4 f5 (f10 (f11 f12 ?v0) ?v1)) ?v2) (f28 (f29 f30 (f3 (f4 f5 ?v0) ?v2)) ?v1))))
(assert (forall ((?v0 S13) (?v1 S7) (?v2 S5)) (= (f31 (f32 f33 (f34 (f35 f36 ?v0) ?v1)) ?v2) (f10 (f11 f12 (f31 (f32 f33 ?v0) ?v2)) ?v1))))
(assert (forall ((?v0 S11) (?v1 S7) (?v2 S14)) (= (f37 (f38 f39 (f40 (f41 f42 ?v0) ?v1)) ?v2) (f43 (f44 f45 (f37 (f38 f39 ?v0) ?v2)) ?v1))))
(assert (forall ((?v0 S27) (?v1 S7) (?v2 S12)) (= (f46 (f47 f48 (f49 (f50 f51 ?v0) ?v1)) ?v2) (f52 (f53 f54 (f46 (f47 f48 ?v0) ?v2)) ?v1))))
(assert (forall ((?v0 S12) (?v1 S7) (?v2 S13)) (= (f55 (f56 f57 (f52 (f53 f54 ?v0) ?v1)) ?v2) (f34 (f35 f36 (f55 (f56 f57 ?v0) ?v2)) ?v1))))
(assert (forall ((?v0 S14) (?v1 S7) (?v2 Int)) (= (f58 (f59 f60 (f43 (f44 f45 ?v0) ?v1)) ?v2) (f61 (f62 f63 (f58 (f59 f60 ?v0) ?v2)) ?v1))))
(assert (forall ((?v0 S5) (?v1 S5)) (=> (= (f9 ?v0 ?v1) f1) (=> (not (= ?v1 f15)) (<= (f61 f64 (f13 f14 ?v0)) (f61 f64 (f13 f14 ?v1)))))))
(assert (forall ((?v0 S11) (?v1 S11)) (=> (= (f20 ?v0 ?v1) f1) (=> (not (= ?v1 f21)) (<= (f61 f64 (f65 f66 ?v0)) (f61 f64 (f65 f66 ?v1)))))))
(assert (forall ((?v0 S12) (?v1 S12)) (=> (= (f22 ?v0 ?v1) f1) (=> (not (= ?v1 f23)) (<= (f61 f64 (f67 f68 ?v0)) (f61 f64 (f67 f68 ?v1)))))))
(assert (forall ((?v0 S13) (?v1 S13)) (=> (= (f24 ?v0 ?v1) f1) (=> (not (= ?v1 f25)) (<= (f61 f64 (f69 f70 ?v0)) (f61 f64 (f69 f70 ?v1)))))))
(assert (forall ((?v0 S14) (?v1 S14)) (=> (= (f26 ?v0 ?v1) f1) (=> (not (= ?v1 f27)) (<= (f61 f64 (f71 f72 ?v0)) (f61 f64 (f71 f72 ?v1)))))))
(assert (forall ((?v0 S2)) (= (f3 (f4 f5 f15) ?v0) f7)))
(assert (forall ((?v0 Int)) (= (f58 (f59 f60 f27) ?v0) 0)))
(assert (forall ((?v0 S5)) (= (f31 (f32 f33 f25) ?v0) f15)))
(assert (forall ((?v0 S11)) (= (f73 (f74 f75 f76) ?v0) f21)))
(assert (forall ((?v0 S12)) (= (f46 (f47 f48 f77) ?v0) f23)))
(assert (forall ((?v0 S13)) (= (f55 (f56 f57 f23) ?v0) f25)))
(assert (forall ((?v0 S14)) (= (f37 (f38 f39 f21) ?v0) f27)))
(assert (forall ((?v0 S5)) (= (= (f4 f5 ?v0) (f4 f5 f15)) (= ?v0 f15))))
(assert (forall ((?v0 S11)) (= (= (f38 f39 ?v0) (f38 f39 f21)) (= ?v0 f21))))
(assert (forall ((?v0 S14)) (= (= (f59 f60 ?v0) (f59 f60 f27)) (= ?v0 f27))))
(assert (= (f13 f14 f15) (f16 f17 0)))
(assert (= (f65 f66 f21) (f16 f17 0)))
(assert (= (f67 f68 f23) (f16 f17 0)))
(assert (= (f69 f70 f25) (f16 f17 0)))
(assert (= (f71 f72 f27) (f16 f17 0)))
(assert (forall ((?v0 S5) (?v1 S5) (?v2 S7)) (=> (= (f9 ?v0 ?v1) f1) (= (f9 (f10 (f11 f12 ?v0) ?v2) (f10 (f11 f12 ?v1) ?v2)) f1))))
(assert (forall ((?v0 S14) (?v1 S14) (?v2 S7)) (=> (= (f26 ?v0 ?v1) f1) (= (f26 (f43 (f44 f45 ?v0) ?v2) (f43 (f44 f45 ?v1) ?v2)) f1))))
(assert (forall ((?v0 S12) (?v1 S12) (?v2 S7)) (=> (= (f22 ?v0 ?v1) f1) (= (f22 (f52 (f53 f54 ?v0) ?v2) (f52 (f53 f54 ?v1) ?v2)) f1))))
(assert (forall ((?v0 S13) (?v1 S13) (?v2 S7)) (=> (= (f24 ?v0 ?v1) f1) (= (f24 (f34 (f35 f36 ?v0) ?v2) (f34 (f35 f36 ?v1) ?v2)) f1))))
(assert (forall ((?v0 S2) (?v1 S2) (?v2 S7)) (=> (= (f19 ?v0 ?v1) f1) (= (f19 (f28 (f29 f30 ?v0) ?v2) (f28 (f29 f30 ?v1) ?v2)) f1))))
(assert (forall ((?v0 Int) (?v1 Int) (?v2 S7)) (=> (= (f18 ?v0 ?v1) f1) (= (f18 (f61 (f62 f63 ?v0) ?v2) (f61 (f62 f63 ?v1) ?v2)) f1))))
(assert (forall ((?v0 S7) (?v1 S7) (?v2 S5)) (let ((?v_0 (f11 f12 ?v2))) (=> (<= (f61 f64 ?v0) (f61 f64 ?v1)) (= (f9 (f10 ?v_0 ?v0) (f10 ?v_0 ?v1)) f1)))))
(assert (forall ((?v0 S7) (?v1 S7) (?v2 S14)) (let ((?v_0 (f44 f45 ?v2))) (=> (<= (f61 f64 ?v0) (f61 f64 ?v1)) (= (f26 (f43 ?v_0 ?v0) (f43 ?v_0 ?v1)) f1)))))
(assert (forall ((?v0 S7) (?v1 S7) (?v2 S12)) (let ((?v_0 (f53 f54 ?v2))) (=> (<= (f61 f64 ?v0) (f61 f64 ?v1)) (= (f22 (f52 ?v_0 ?v0) (f52 ?v_0 ?v1)) f1)))))
(assert (forall ((?v0 S7) (?v1 S7) (?v2 S13)) (let ((?v_0 (f35 f36 ?v2))) (=> (<= (f61 f64 ?v0) (f61 f64 ?v1)) (= (f24 (f34 ?v_0 ?v0) (f34 ?v_0 ?v1)) f1)))))
(assert (forall ((?v0 S7) (?v1 S7) (?v2 S2)) (let ((?v_0 (f29 f30 ?v2))) (=> (<= (f61 f64 ?v0) (f61 f64 ?v1)) (= (f19 (f28 ?v_0 ?v0) (f28 ?v_0 ?v1)) f1)))))
(assert (forall ((?v0 S7) (?v1 S7) (?v2 Int)) (let ((?v_0 (f62 f63 ?v2))) (=> (<= (f61 f64 ?v0) (f61 f64 ?v1)) (= (f18 (f61 ?v_0 ?v0) (f61 ?v_0 ?v1)) f1)))))
(assert (forall ((?v0 S5) (?v1 S5) (?v2 S7) (?v3 S7)) (=> (= (f9 ?v0 ?v1) f1) (=> (<= (f61 f64 ?v2) (f61 f64 ?v3)) (= (f9 (f10 (f11 f12 ?v0) ?v2) (f10 (f11 f12 ?v1) ?v3)) f1)))))
(assert (forall ((?v0 S14) (?v1 S14) (?v2 S7) (?v3 S7)) (=> (= (f26 ?v0 ?v1) f1) (=> (<= (f61 f64 ?v2) (f61 f64 ?v3)) (= (f26 (f43 (f44 f45 ?v0) ?v2) (f43 (f44 f45 ?v1) ?v3)) f1)))))
(assert (forall ((?v0 S12) (?v1 S12) (?v2 S7) (?v3 S7)) (=> (= (f22 ?v0 ?v1) f1) (=> (<= (f61 f64 ?v2) (f61 f64 ?v3)) (= (f22 (f52 (f53 f54 ?v0) ?v2) (f52 (f53 f54 ?v1) ?v3)) f1)))))
(assert (forall ((?v0 S13) (?v1 S13) (?v2 S7) (?v3 S7)) (=> (= (f24 ?v0 ?v1) f1) (=> (<= (f61 f64 ?v2) (f61 f64 ?v3)) (= (f24 (f34 (f35 f36 ?v0) ?v2) (f34 (f35 f36 ?v1) ?v3)) f1)))))
(assert (forall ((?v0 S2) (?v1 S2) (?v2 S7) (?v3 S7)) (=> (= (f19 ?v0 ?v1) f1) (=> (<= (f61 f64 ?v2) (f61 f64 ?v3)) (= (f19 (f28 (f29 f30 ?v0) ?v2) (f28 (f29 f30 ?v1) ?v3)) f1)))))
(assert (forall ((?v0 Int) (?v1 Int) (?v2 S7) (?v3 S7)) (=> (= (f18 ?v0 ?v1) f1) (=> (<= (f61 f64 ?v2) (f61 f64 ?v3)) (= (f18 (f61 (f62 f63 ?v0) ?v2) (f61 (f62 f63 ?v1) ?v3)) f1)))))
(assert (forall ((?v0 S5) (?v1 S7) (?v2 S5) (?v3 S7)) (let ((?v_0 (f11 f12 ?v0))) (=> (= (f9 (f10 ?v_0 ?v1) ?v2) f1) (=> (<= (f61 f64 ?v3) (f61 f64 ?v1)) (= (f9 (f10 ?v_0 ?v3) ?v2) f1))))))
(assert (forall ((?v0 S14) (?v1 S7) (?v2 S14) (?v3 S7)) (let ((?v_0 (f44 f45 ?v0))) (=> (= (f26 (f43 ?v_0 ?v1) ?v2) f1) (=> (<= (f61 f64 ?v3) (f61 f64 ?v1)) (= (f26 (f43 ?v_0 ?v3) ?v2) f1))))))
(assert (forall ((?v0 S12) (?v1 S7) (?v2 S12) (?v3 S7)) (let ((?v_0 (f53 f54 ?v0))) (=> (= (f22 (f52 ?v_0 ?v1) ?v2) f1) (=> (<= (f61 f64 ?v3) (f61 f64 ?v1)) (= (f22 (f52 ?v_0 ?v3) ?v2) f1))))))
(assert (forall ((?v0 S13) (?v1 S7) (?v2 S13) (?v3 S7)) (let ((?v_0 (f35 f36 ?v0))) (=> (= (f24 (f34 ?v_0 ?v1) ?v2) f1) (=> (<= (f61 f64 ?v3) (f61 f64 ?v1)) (= (f24 (f34 ?v_0 ?v3) ?v2) f1))))))
(assert (forall ((?v0 S2) (?v1 S7) (?v2 S2) (?v3 S7)) (let ((?v_0 (f29 f30 ?v0))) (=> (= (f19 (f28 ?v_0 ?v1) ?v2) f1) (=> (<= (f61 f64 ?v3) (f61 f64 ?v1)) (= (f19 (f28 ?v_0 ?v3) ?v2) f1))))))
(assert (forall ((?v0 Int) (?v1 S7) (?v2 Int) (?v3 S7)) (let ((?v_0 (f62 f63 ?v0))) (=> (= (f18 (f61 ?v_0 ?v1) ?v2) f1) (=> (<= (f61 f64 ?v3) (f61 f64 ?v1)) (= (f18 (f61 ?v_0 ?v3) ?v2) f1))))))
(assert (forall ((?v0 S7)) (= (f61 (f62 f63 0) (f16 f17 (+ (f61 f64 ?v0) 1))) 0)))
(assert (forall ((?v0 S7)) (= (f10 (f11 f12 f15) (f16 f17 (+ (f61 f64 ?v0) 1))) f15)))
(assert (forall ((?v0 S7)) (= (f28 (f29 f30 f7) (f16 f17 (+ (f61 f64 ?v0) 1))) f7)))
(assert (forall ((?v0 S7)) (= (f40 (f41 f42 f21) (f16 f17 (+ (f61 f64 ?v0) 1))) f21)))
(assert (forall ((?v0 S7)) (= (f52 (f53 f54 f23) (f16 f17 (+ (f61 f64 ?v0) 1))) f23)))
(assert (forall ((?v0 S7)) (= (f34 (f35 f36 f25) (f16 f17 (+ (f61 f64 ?v0) 1))) f25)))
(assert (forall ((?v0 S7)) (= (f43 (f44 f45 f27) (f16 f17 (+ (f61 f64 ?v0) 1))) f27)))
(assert (forall ((?v0 S14) (?v1 S14)) (=> (= (f37 f78 ?v0) (f37 f78 ?v1)) (= (f26 ?v0 ?v1) f1))))
(assert (forall ((?v0 Int) (?v1 Int)) (=> (= (f58 f79 ?v0) (f58 f79 ?v1)) (= (f18 ?v0 ?v1) f1))))
(assert (forall ((?v0 S5) (?v1 S5) (?v2 S5)) (=> (= (f9 ?v0 ?v1) f1) (=> (= (f9 ?v1 ?v2) f1) (= (f9 ?v0 ?v2) f1)))))
(assert (forall ((?v0 S14) (?v1 S14) (?v2 S14)) (=> (= (f26 ?v0 ?v1) f1) (=> (= (f26 ?v1 ?v2) f1) (= (f26 ?v0 ?v2) f1)))))
(assert (forall ((?v0 S13) (?v1 S13) (?v2 S13)) (=> (= (f24 ?v0 ?v1) f1) (=> (= (f24 ?v1 ?v2) f1) (= (f24 ?v0 ?v2) f1)))))
(assert (forall ((?v0 S2) (?v1 S2) (?v2 S2)) (=> (= (f19 ?v0 ?v1) f1) (=> (= (f19 ?v1 ?v2) f1) (= (f19 ?v0 ?v2) f1)))))
(assert (forall ((?v0 Int) (?v1 Int) (?v2 Int)) (=> (= (f18 ?v0 ?v1) f1) (=> (= (f18 ?v1 ?v2) f1) (= (f18 ?v0 ?v2) f1)))))
(assert (forall ((?v0 S14) (?v1 S14)) (= (= (f26 (f37 f78 ?v0) ?v1) f1) (= (f26 ?v0 ?v1) f1))))
(assert (forall ((?v0 Int) (?v1 Int)) (= (= (f18 (f58 f79 ?v0) ?v1) f1) (= (f18 ?v0 ?v1) f1))))
(assert (forall ((?v0 S14) (?v1 S14)) (= (= (f26 ?v0 (f37 f78 ?v1)) f1) (= (f26 ?v0 ?v1) f1))))
(assert (forall ((?v0 Int) (?v1 Int)) (= (= (f18 ?v0 (f58 f79 ?v1)) f1) (= (f18 ?v0 ?v1) f1))))
(assert (forall ((?v0 S5)) (= (f9 ?v0 ?v0) f1)))
(assert (forall ((?v0 S14)) (= (f26 ?v0 ?v0) f1)))
(assert (forall ((?v0 S13)) (= (f24 ?v0 ?v0) f1)))
(assert (forall ((?v0 S2)) (= (f19 ?v0 ?v0) f1)))
(assert (forall ((?v0 Int)) (= (f18 ?v0 ?v0) f1)))
(assert (forall ((?v0 S5)) (= (f10 (f11 f12 ?v0) (f16 f17 1)) ?v0)))
(assert (forall ((?v0 S14)) (= (f43 (f44 f45 ?v0) (f16 f17 1)) ?v0)))
(assert (forall ((?v0 S12)) (= (f52 (f53 f54 ?v0) (f16 f17 1)) ?v0)))
(assert (forall ((?v0 S13)) (= (f34 (f35 f36 ?v0) (f16 f17 1)) ?v0)))
(assert (forall ((?v0 S2)) (= (f28 (f29 f30 ?v0) (f16 f17 1)) ?v0)))
(assert (forall ((?v0 Int)) (= (f61 (f62 f63 ?v0) (f16 f17 1)) ?v0)))
(assert (forall ((?v0 S14) (?v1 S7)) (= (f37 f78 (f43 (f44 f45 ?v0) ?v1)) (f43 (f44 f45 (f37 f78 ?v0)) ?v1))))
(assert (forall ((?v0 Int) (?v1 S7)) (= (f58 f79 (f61 (f62 f63 ?v0) ?v1)) (f61 (f62 f63 (f58 f79 ?v0)) ?v1))))
(assert (forall ((?v0 S5) (?v1 S5)) (= (= (f4 f5 ?v0) (f4 f5 ?v1)) (= ?v0 ?v1))))
(assert (forall ((?v0 S11) (?v1 S11)) (= (= (f38 f39 ?v0) (f38 f39 ?v1)) (= ?v0 ?v1))))
(assert (forall ((?v0 S14) (?v1 S14)) (= (= (f59 f60 ?v0) (f59 f60 ?v1)) (= ?v0 ?v1))))
(assert (forall ((?v0 S5)) (=> (= (f9 f15 ?v0) f1) (= ?v0 f15))))
(assert (forall ((?v0 Int)) (=> (= (f18 0 ?v0) f1) (= ?v0 0))))
(assert (forall ((?v0 S2)) (=> (= (f19 f7 ?v0) f1) (= ?v0 f7))))
(assert (forall ((?v0 S11)) (=> (= (f20 f21 ?v0) f1) (= ?v0 f21))))
(assert (forall ((?v0 S12)) (=> (= (f22 f23 ?v0) f1) (= ?v0 f23))))
(assert (forall ((?v0 S13)) (=> (= (f24 f25 ?v0) f1) (= ?v0 f25))))
(assert (forall ((?v0 S14)) (=> (= (f26 f27 ?v0) f1) (= ?v0 f27))))
(assert (forall ((?v0 Int) (?v1 S7)) (=> (not (= ?v0 0)) (not (= (f61 (f62 f63 ?v0) ?v1) 0)))))
(assert (forall ((?v0 S5) (?v1 S7)) (=> (not (= ?v0 f15)) (not (= (f10 (f11 f12 ?v0) ?v1) f15)))))
(assert (forall ((?v0 S2) (?v1 S7)) (=> (not (= ?v0 f7)) (not (= (f28 (f29 f30 ?v0) ?v1) f7)))))
(assert (forall ((?v0 S11) (?v1 S7)) (=> (not (= ?v0 f21)) (not (= (f40 (f41 f42 ?v0) ?v1) f21)))))
(assert (forall ((?v0 S12) (?v1 S7)) (=> (not (= ?v0 f23)) (not (= (f52 (f53 f54 ?v0) ?v1) f23)))))
(assert (forall ((?v0 S13) (?v1 S7)) (=> (not (= ?v0 f25)) (not (= (f34 (f35 f36 ?v0) ?v1) f25)))))
(assert (forall ((?v0 S14) (?v1 S7)) (=> (not (= ?v0 f27)) (not (= (f43 (f44 f45 ?v0) ?v1) f27)))))
(assert (forall ((?v0 Int) (?v1 S7)) (= (= (f61 (f62 f63 ?v0) ?v1) 0) (and (= ?v0 0) (not (= ?v1 (f16 f17 0)))))))
(assert (forall ((?v0 S5) (?v1 S7)) (= (= (f10 (f11 f12 ?v0) ?v1) f15) (and (= ?v0 f15) (not (= ?v1 (f16 f17 0)))))))
(assert (forall ((?v0 S2) (?v1 S7)) (= (= (f28 (f29 f30 ?v0) ?v1) f7) (and (= ?v0 f7) (not (= ?v1 (f16 f17 0)))))))
(assert (forall ((?v0 S11) (?v1 S7)) (= (= (f40 (f41 f42 ?v0) ?v1) f21) (and (= ?v0 f21) (not (= ?v1 (f16 f17 0)))))))
(assert (forall ((?v0 S12) (?v1 S7)) (= (= (f52 (f53 f54 ?v0) ?v1) f23) (and (= ?v0 f23) (not (= ?v1 (f16 f17 0)))))))
(assert (forall ((?v0 S13) (?v1 S7)) (= (= (f34 (f35 f36 ?v0) ?v1) f25) (and (= ?v0 f25) (not (= ?v1 (f16 f17 0)))))))
(assert (forall ((?v0 S14) (?v1 S7)) (= (= (f43 (f44 f45 ?v0) ?v1) f27) (and (= ?v0 f27) (not (= ?v1 (f16 f17 0)))))))
(assert (forall ((?v0 S5) (?v1 S2)) (= (= (f3 (f4 f5 ?v0) ?v1) f7) (or (= ?v0 f15) (not (= (f13 (f80 f81 ?v1) ?v0) (f16 f17 0)))))))
(assert (forall ((?v0 S14) (?v1 Int)) (= (= (f58 (f59 f60 ?v0) ?v1) 0) (or (= ?v0 f27) (not (= (f71 (f82 f83 ?v1) ?v0) (f16 f17 0)))))))
(assert (forall ((?v0 S13) (?v1 S5)) (= (= (f31 (f32 f33 ?v0) ?v1) f15) (or (= ?v0 f25) (not (= (f69 (f84 f85 ?v1) ?v0) (f16 f17 0)))))))
(assert (forall ((?v0 S46) (?v1 S11)) (= (= (f73 (f74 f75 ?v0) ?v1) f21) (or (= ?v0 f76) (not (= (f86 (f87 f88 ?v1) ?v0) (f16 f17 0)))))))
(assert (forall ((?v0 S27) (?v1 S12)) (= (= (f46 (f47 f48 ?v0) ?v1) f23) (or (= ?v0 f77) (not (= (f89 (f90 f91 ?v1) ?v0) (f16 f17 0)))))))
(assert (forall ((?v0 S12) (?v1 S13)) (= (= (f55 (f56 f57 ?v0) ?v1) f25) (or (= ?v0 f23) (not (= (f67 (f92 f93 ?v1) ?v0) (f16 f17 0)))))))
(assert (forall ((?v0 S11) (?v1 S14)) (= (= (f37 (f38 f39 ?v0) ?v1) f27) (or (= ?v0 f21) (not (= (f65 (f94 f95 ?v1) ?v0) (f16 f17 0)))))))
(assert (forall ((?v0 Int)) (= (= (f61 (f62 f63 ?v0) (f16 f17 2)) 0) (= ?v0 0))))
(assert (forall ((?v0 S5)) (= (= (f10 (f11 f12 ?v0) (f16 f17 2)) f15) (= ?v0 f15))))
(assert (forall ((?v0 S2)) (= (= (f28 (f29 f30 ?v0) (f16 f17 2)) f7) (= ?v0 f7))))
(assert (forall ((?v0 S11)) (= (= (f40 (f41 f42 ?v0) (f16 f17 2)) f21) (= ?v0 f21))))
(assert (forall ((?v0 S12)) (= (= (f52 (f53 f54 ?v0) (f16 f17 2)) f23) (= ?v0 f23))))
(assert (forall ((?v0 S13)) (= (= (f34 (f35 f36 ?v0) (f16 f17 2)) f25) (= ?v0 f25))))
(assert (forall ((?v0 S14)) (= (= (f43 (f44 f45 ?v0) (f16 f17 2)) f27) (= ?v0 f27))))
(assert (= (f61 (f62 f63 0) (f16 f17 2)) 0))
(assert (= (f10 (f11 f12 f15) (f16 f17 2)) f15))
(assert (= (f28 (f29 f30 f7) (f16 f17 2)) f7))
(assert (= (f40 (f41 f42 f21) (f16 f17 2)) f21))
(assert (= (f52 (f53 f54 f23) (f16 f17 2)) f23))
(assert (= (f34 (f35 f36 f25) (f16 f17 2)) f25))
(assert (= (f43 (f44 f45 f27) (f16 f17 2)) f27))
(assert (forall ((?v0 S5) (?v1 S2)) (=> (not (= ?v0 f15)) (<= (f61 f64 (f13 (f80 f81 ?v1) ?v0)) (f61 f64 (f13 f14 ?v0))))))
(assert (forall ((?v0 S11) (?v1 S14)) (=> (not (= ?v0 f21)) (<= (f61 f64 (f65 (f94 f95 ?v1) ?v0)) (f61 f64 (f65 f66 ?v0))))))
(assert (forall ((?v0 S12) (?v1 S13)) (=> (not (= ?v0 f23)) (<= (f61 f64 (f67 (f92 f93 ?v1) ?v0)) (f61 f64 (f67 f68 ?v0))))))
(assert (forall ((?v0 S13) (?v1 S5)) (=> (not (= ?v0 f25)) (<= (f61 f64 (f69 (f84 f85 ?v1) ?v0)) (f61 f64 (f69 f70 ?v0))))))
(assert (forall ((?v0 S14) (?v1 Int)) (=> (not (= ?v0 f27)) (<= (f61 f64 (f71 (f82 f83 ?v1) ?v0)) (f61 f64 (f71 f72 ?v0))))))
(assert (forall ((?v0 S5)) (= (f13 f96 ?v0) (ite (= ?v0 f15) (f16 f17 0) (f16 f17 (+ (f61 f64 (f13 f14 ?v0)) 1))))))
(assert (forall ((?v0 S11)) (= (f65 f97 ?v0) (ite (= ?v0 f21) (f16 f17 0) (f16 f17 (+ (f61 f64 (f65 f66 ?v0)) 1))))))
(assert (forall ((?v0 S12)) (= (f67 f98 ?v0) (ite (= ?v0 f23) (f16 f17 0) (f16 f17 (+ (f61 f64 (f67 f68 ?v0)) 1))))))
(assert (forall ((?v0 S13)) (= (f69 f99 ?v0) (ite (= ?v0 f25) (f16 f17 0) (f16 f17 (+ (f61 f64 (f69 f70 ?v0)) 1))))))
(assert (forall ((?v0 S14)) (= (f71 f100 ?v0) (ite (= ?v0 f27) (f16 f17 0) (f16 f17 (+ (f61 f64 (f71 f72 ?v0)) 1))))))
(assert (forall ((?v0 S7)) (= (f16 f17 (f61 f64 ?v0)) ?v0)))
(assert (forall ((?v0 Int)) (=> (<= 0 ?v0) (= (f61 f64 (f16 f17 ?v0)) ?v0))))
(assert (forall ((?v0 Int)) (=> (< ?v0 0) (= (f61 f64 (f16 f17 ?v0)) 0))))
(check-sat)
(exit)
